(set-logic QF_IDL)
(set-info :source |
Job_Shop_Scheduling Problem from Papadimitriou-Steiglitz is translated by Hyondeuk Kim in SMT-LIB format benchmark
|)
(set-info :smt-lib-version 2.0)
(set-info :category "crafted")
(set-info :status sat)
(declare-fun s1_1 () Int)
(declare-fun s1_2 () Int)
(declare-fun s2_1 () Int)
(declare-fun s2_2 () Int)
(declare-fun s3_1 () Int)
(declare-fun s3_2 () Int)
(declare-fun s4_1 () Int)
(declare-fun s4_2 () Int)
(declare-fun m1_1 () Int)
(declare-fun m2_1 () Int)
(declare-fun m3_1 () Int)
(declare-fun m4_1 () Int)
(declare-fun m1_2 () Int)
(declare-fun m2_2 () Int)
(declare-fun m3_2 () Int)
(declare-fun m4_2 () Int)
(declare-fun ref () Int)
(assert (let ((?v_0 (- m1_1 ref)) (?v_1 (- m2_1 ref)) (?v_2 (- m3_1 ref)) (?v_3 (- m4_1 ref)) (?v_4 (- m1_2 ref)) (?v_5 (- m2_2 ref)) (?v_6 (- m3_2 ref)) (?v_7 (- m4_2 ref))) (and (<= ?v_0 1) (<= ?v_1 1) (<= ?v_2 1) (<= ?v_3 1) (<= ?v_4 1) (<= ?v_5 1) (<= ?v_6 1) (<= ?v_7 1) (>= ?v_0 0) (>= ?v_1 0) (>= ?v_2 0) (>= ?v_3 0) (>= ?v_4 0) (>= ?v_5 0) (>= ?v_6 0) (>= ?v_7 0) (or (not (= (- m1_1 m2_1) 0)) (>= (- s1_1 s2_1) 4) (>= (- s2_1 s1_1) 4)) (or (not (= (- m1_1 m3_1) 0)) (>= (- s1_1 s3_1) 4) (>= (- s3_1 s1_1) 4)) (or (not (= (- m1_1 m4_1) 0)) (>= (- s1_1 s4_1) 4) (>= (- s4_1 s1_1) 4)) (or (not (= (- m2_1 m3_1) 0)) (>= (- s2_1 s3_1) 4) (>= (- s3_1 s2_1) 4)) (or (not (= (- m2_1 m4_1) 0)) (>= (- s2_1 s4_1) 4) (>= (- s4_1 s2_1) 4)) (or (not (= (- m3_1 m4_1) 0)) (>= (- s3_1 s4_1) 4) (>= (- s4_1 s3_1) 4)) (or (not (= (- m1_2 m2_2) 0)) (>= (- s1_2 s2_2) 4) (>= (- s2_2 s1_2) 4)) (or (not (= (- m1_2 m3_2) 0)) (>= (- s1_2 s3_2) 4) (>= (- s3_2 s1_2) 4)) (or (not (= (- m1_2 m4_2) 0)) (>= (- s1_2 s4_2) 4) (>= (- s4_2 s1_2) 4)) (or (not (= (- m2_2 m3_2) 0)) (>= (- s2_2 s3_2) 4) (>= (- s3_2 s2_2) 4)) (or (not (= (- m2_2 m4_2) 0)) (>= (- s2_2 s4_2) 4) (>= (- s4_2 s2_2) 4)) (or (not (= (- m3_2 m4_2) 0)) (>= (- s3_2 s4_2) 4) (>= (- s4_2 s3_2) 4)) (>= (- s1_2 s1_1) 4) (>= (- s2_2 s2_1) 4) (>= (- s3_2 s3_1) 4) (>= (- s4_2 s4_1) 4) (<= (- s1_2 ref) 8) (<= (- s2_2 ref) 8) (<= (- s3_2 ref) 8) (<= (- s4_2 ref) 8) (>= (- s1_1 ref) 0) (>= (- s2_1 ref) 0) (>= (- s3_1 ref) 0) (>= (- s4_1 ref) 0))))
(check-sat)
(exit)
